qbf_easy_train/easy_4006_UNSAT.qdimacs
p cnf 32 87
a 24 17 10 0
e 1 2 3 4 5 6 7 8 9 11 12 13 14 15 16 18 19 20 21 22 23 25 26 27 28 29 30 31 32 0
3 -1 0
3 -2 0
1 2 -3 0
5 -4 0
5 2 0
4 -2 -5 0
8 6 0
8 -7 0
-6 7 -8 0
-8 6 -9 0
8 -6 -9 0
-8 -6 9 0
8 6 9 0
-10 -5 0
-10 9 0
5 -9 10 0
-11 -3 0
-11 -10 0
3 10 11 0
1 -12 -13 0
-1 12 -13 0
1 12 13 0
-1 -12 13 0
-14 -13 0
-14 1 0
13 -1 14 0
-16 7 0
-16 1 0
-7 -1 16 0
17 15 0
17 16 0
-15 -16 -17 0
18 -14 0
18 -17 0
14 17 -18 0
-20 -19 0
-20 -8 0
19 8 20 0
-21 -7 0
-21 -7 0
7 21 0
-22 2 0
-22 -21 0
-2 21 22 0
-23 22 0
-23 4 0
-22 -4 23 0
-24 -8 0
-24 -23 0
8 23 24 0
20 -24 -25 0
-20 24 -25 0
20 24 25 0
-20 -24 25 0
26 18 0
26 -25 0
-18 25 -26 0
-27 -11 0
-27 -26 0
11 26 27 0
-28 16 0
-28 6 0
-16 -6 28 0
-29 28 0
-29 -6 0
-28 6 29 0
-19 4 -30 0
19 -4 -30 0
-19 -4 30 0
19 4 30 0
-29 30 -31 0
29 -30 -31 0
-29 -30 31 0
29 30 31 0
27 -31 -32 0
-27 31 -32 0
27 31 32 0
-27 -31 32 0
-23 13 22 -17 30 9 21 0
32 3 -24 23 0
-28 21 32 -23 16 0
-11 -1 10 25 26 0
-21 -5 -27 12 6 9 0
-18 16 -13 0
3 -5 -2 -32 -21 0
12 22 32 4 0
32 0
