sat_easy_train/easy_4006_UNSAT.dimacs
p cnf 134 454
-3 -1 0
-3 2 0
1 -2 3 0
3 4 -5 0
-3 -4 -5 0
3 -4 5 0
-3 4 5 0
-7 -5 0
-7 -6 0
5 6 7 0
-8 -2 0
-8 -3 0
2 3 8 0
9 -7 0
9 -8 0
7 8 -9 0
-13 -11 0
-13 12 0
11 -12 13 0
10 13 -14 0
-10 -13 -14 0
10 -13 14 0
-10 13 14 0
15 9 0
15 14 0
-9 -14 -15 0
18 16 0
18 17 0
-16 -17 -18 0
-19 18 0
-19 -11 0
-18 11 19 0
21 -20 0
21 -1 0
20 1 -21 0
-22 -21 0
-22 1 0
21 -1 22 0
-23 16 0
-23 -22 0
-16 22 23 0
-1 -23 -24 0
1 23 -24 0
-1 23 24 0
1 -23 24 0
25 -19 0
25 24 0
19 -24 -25 0
-27 -3 0
-27 -17 0
3 17 27 0
26 27 -28 0
-26 -27 -28 0
26 -27 28 0
-26 27 28 0
-28 -12 -29 0
28 12 -29 0
-28 12 29 0
28 -12 29 0
-23 -29 -30 0
23 29 -30 0
-23 29 30 0
23 -29 30 0
31 5 0
31 30 0
-5 -30 -31 0
-32 -25 0
-32 31 0
25 -31 32 0
-33 15 0
-33 -32 0
-15 32 33 0
34 4 0
34 17 0
-4 -17 -34 0
-35 34 0
-35 7 0
-34 -7 35 0
-37 -36 0
-37 17 0
36 -17 37 0
38 35 0
38 -37 0
-35 37 -38 0
-2 -29 -39 0
2 29 -39 0
-2 29 39 0
2 -29 39 0
38 39 -40 0
-38 -39 -40 0
38 -39 40 0
-38 39 40 0
41 33 0
41 40 0
-33 -40 -41 0
-3 -23 -42 0
3 23 -42 0
-3 23 42 0
3 -23 42 0
44 36 0
44 -43 0
-36 43 -44 0
-45 6 0
-45 3 0
-6 -3 45 0
46 -44 0
46 -45 0
44 45 -46 0
47 -21 0
47 21 0
-48 -46 0
-48 47 0
46 -47 48 0
49 -10 0
49 -18 0
10 18 -49 0
48 -49 -50 0
-48 49 -50 0
48 49 50 0
-48 -49 50 0
-51 14 0
-51 38 0
-14 -38 51 0
52 50 0
52 51 0
-50 -51 -52 0
-53 -35 0
-53 50 0
35 -50 53 0
54 -52 0
54 -53 0
52 53 -54 0
55 -42 0
55 -54 0
42 54 -55 0
56 34 0
56 -16 0
-34 16 -56 0
57 55 0
57 56 0
-55 -56 -57 0
-58 -27 0
-58 23 0
27 -23 58 0
-59 58 0
-59 -5 0
-58 5 59 0
60 39 0
60 -48 0
-39 48 -60 0
61 -59 0
61 60 0
59 -60 -61 0
62 -36 0
62 -21 0
36 21 -62 0
-37 62 -63 0
37 -62 -63 0
-37 -62 63 0
37 62 63 0
-64 -39 0
-64 -63 0
39 63 64 0
-6 -26 -65 0
6 26 -65 0
-6 26 65 0
6 -26 65 0
-65 3 -66 0
65 -3 -66 0
-65 -3 66 0
65 3 66 0
66 -67 -68 0
-66 67 -68 0
66 67 68 0
-66 -67 68 0
-69 20 0
-69 35 0
-20 -35 69 0
-70 -68 0
-70 -69 0
68 69 70 0
-71 -64 0
-71 -70 0
64 70 71 0
-72 61 0
-72 -71 0
-61 71 72 0
73 57 0
73 -72 0
-57 72 -73 0
74 41 0
74 73 0
-41 -73 -74 0
-75 46 0
-75 8 0
-46 -8 75 0
76 -35 0
76 -75 0
35 75 -76 0
-5 -6 -77 0
5 6 -77 0
-5 6 77 0
5 -6 77 0
78 76 0
78 -77 0
-76 77 -78 0
79 19 0
79 11 0
-19 -11 -79 0
-80 6 0
-80 -5 0
-6 5 80 0
81 -79 0
81 -80 0
79 80 -81 0
-82 11 0
-82 -12 0
-11 12 82 0
-81 -82 -83 0
81 82 -83 0
-81 82 83 0
81 -82 83 0
78 -83 -84 0
-78 83 -84 0
78 83 84 0
-78 -83 84 0
85 -16 -86 0
-85 16 -86 0
85 16 86 0
-85 -16 86 0
87 84 0
87 -86 0
-84 86 -87 0
-38 -47 -88 0
38 47 -88 0
-38 47 88 0
38 -47 88 0
-89 -87 0
-89 -88 0
87 88 89 0
-45 -4 -90 0
45 4 -90 0
-45 4 90 0
45 -4 90 0
27 -90 -91 0
-27 90 -91 0
27 90 91 0
-27 -90 91 0
92 8 0
92 -91 0
-8 91 -92 0
-93 -92 0
-93 12 0
92 -12 93 0
89 93 -94 0
-89 -93 -94 0
89 -93 94 0
-89 93 94 0
62 20 -95 0
-62 -20 -95 0
62 -20 95 0
-62 20 95 0
-45 16 -96 0
45 -16 -96 0
-45 -16 96 0
45 16 96 0
-97 -96 0
-97 -49 0
96 49 97 0
-98 2 0
-98 2 0
-2 98 0
-99 -97 0
-99 98 0
97 -98 99 0
100 95 0
100 -99 0
-95 99 -100 0
94 -100 -101 0
-94 100 -101 0
94 100 101 0
-94 -100 101 0
-102 20 0
-102 37 0
-20 -37 102 0
24 -102 -103 0
-24 102 -103 0
24 102 103 0
-24 -102 103 0
104 2 0
104 5 0
-2 -5 -104 0
103 104 -105 0
-103 -104 -105 0
103 -104 105 0
-103 104 105 0
106 17 0
106 -16 0
-17 16 -106 0
-6 106 -107 0
6 -106 -107 0
-6 -106 107 0
6 106 107 0
-108 63 0
-108 107 0
-63 -107 108 0
-11 85 -109 0
11 -85 -109 0
-11 -85 109 0
11 85 109 0
110 -13 0
110 -22 0
13 22 -110 0
111 8 0
111 -18 0
-8 18 -111 0
-112 45 0
-112 -36 0
-45 36 112 0
111 112 -113 0
-111 -112 -113 0
111 -112 113 0
-111 112 113 0
-110 -113 -114 0
110 113 -114 0
-110 113 114 0
110 -113 114 0
-115 -109 0
-115 114 0
109 -114 115 0
-108 115 -116 0
108 -115 -116 0
-108 -115 116 0
108 115 116 0
-117 -105 0
-117 116 0
105 -116 117 0
-118 -26 0
-118 -85 0
26 85 118 0
-120 19 0
-120 38 0
-19 -38 120 0
-119 120 -121 0
119 -120 -121 0
-119 -120 121 0
119 120 121 0
-118 121 -122 0
118 -121 -122 0
-118 -121 122 0
118 121 122 0
18 112 -123 0
-18 -112 -123 0
18 -112 123 0
-18 112 123 0
-28 -35 -124 0
28 35 -124 0
-28 35 124 0
28 -35 124 0
-125 -120 0
-125 -124 0
120 124 125 0
90 -2 -126 0
-90 2 -126 0
90 2 126 0
-90 -2 126 0
-127 28 0
-127 -48 0
-28 48 127 0
-128 -126 0
-128 127 0
126 -127 128 0
-129 125 0
-129 128 0
-125 -128 129 0
-123 129 -130 0
123 -129 -130 0
-123 -129 130 0
123 129 130 0
131 -122 0
131 130 0
122 -130 -131 0
117 131 -132 0
-117 -131 -132 0
117 -131 132 0
-117 131 132 0
101 132 -133 0
-101 -132 -133 0
101 -132 133 0
-101 132 133 0
74 -133 -134 0
-74 133 -134 0
74 133 134 0
-74 -133 134 0
-75 33 -4 -87 0
133 61 87 101 0
-41 127 -85 15 -96 0
-62 -81 -17 -93 80 114 0
9 -23 -52 30 -32 -46 0
128 49 42 0
96 127 38 59 86 -80 0
-57 123 10 -61 25 -86 0
31 74 -47 49 -53 0
122 3 -40 -82 -41 0
-12 -34 -94 108 -74 0
-63 101 58 0
-59 3 47 -67 -53 0
-23 -40 0
95 -20 82 119 -28 107 0
56 -12 33 -50 0
-38 -118 -30 132 0
-114 78 -61 -65 -68 125 0
125 -57 0
96 -86 -36 0
-85 29 114 0
126 104 1 24 -50 0
-3 -113 0
14 -22 80 -79 -20 -53 0
86 43 0
101 -128 -63 -68 -72 0
-114 -2 -67 -121 74 0
-108 29 -117 -63 -49 57 0
-29 -10 85 56 0
-120 -12 131 67 90 128 0
-103 -56 86 32 -44 -81 0
109 92 106 0
100 -18 -59 -72 0
133 21 45 0
26 17 -101 -45 77 66 0
110 -81 0
57 -23 40 109 0
-87 91 -85 0
-63 -66 -89 -108 -78 0
43 70 -79 107 69 0
-114 25 0
-130 52 -26 115 0
-15 50 0
-117 112 0
59 -74 26 106 0
84 113 0
-40 -51 32 0
-42 77 134 -11 0
61 27 -118 97 0
-119 112 -42 -18 -53 99 0
-1 -29 0
-107 -69 16 2 0
-95 41 51 53 -114 1 0
-108 -65 -62 -121 -119 0
-19 -24 0
57 105 0
64 -3 96 97 0
-109 55 122 -22 0
-67 14 0
134 0
